(declare-fun var0 () String)
(assert (str.in.re var0 (re.++ (re.+ (re.union (str.to.re "h") (str.to.re "i"))) (re.++ (re.* (re.* (str.to.re "gg"))) (re.++ (re.* (re.* (str.to.re "fff"))) (re.++ (re.* (re.union (str.to.re "ddd") (str.to.re "eee"))) (re.++ (re.union (re.+ (str.to.re "a")) (re.union (str.to.re "bbb") (str.to.re "ccc"))) (re.++ (re.+ (re.* (str.to.re "9"))) (re.++ (re.union (re.+ (str.to.re "77")) (re.* (str.to.re "88"))) (re.++ (re.* (re.* (str.to.re "666"))) (re.++ (re.union (re.+ (str.to.re "4")) (re.* (str.to.re "5"))) (re.++ (re.union (re.union (str.to.re "00") (str.to.re "1")) (re.union (str.to.re "2") (str.to.re "33"))) (re.++ (re.union (re.union (str.to.re "{{") (str.to.re "||")) (re.union (str.to.re "}}") (str.to.re "~"))) (re.++ (re.+ (re.* (str.to.re "```"))) (re.++ (re.* (re.* (str.to.re "_"))) (re.++ (re.+ (re.union (str.to.re "]") (str.to.re "^^^"))) (re.++ (re.* (re.+ (str.to.re "\\\\\\"))) (re.++ (re.* (re.+ (str.to.re "["))) (re.++ (re.* (re.+ (str.to.re "@@@"))) (re.++ (re.union (re.+ (str.to.re "=")) (re.union (str.to.re ">>>") (str.to.re "??"))) (re.++ (re.union (re.+ (str.to.re ";")) (re.+ (str.to.re "<"))) (re.++ (re.union (re.+ (str.to.re "///")) (re.* (str.to.re ":"))) (re.++ (re.+ (re.union (str.to.re "--") (str.to.re "."))) (re.++ (re.+ (re.* (str.to.re ",,"))) (re.++ (re.union (re.union (str.to.re ")))") (str.to.re "**")) (re.* (str.to.re "+"))) (re.++ (re.union (re.+ (str.to.re "'")) (re.+ (str.to.re "(("))) (re.++ (re.union (re.union (str.to.re "###") (str.to.re "$")) (re.union (str.to.re "%") (str.to.re "&"))) (re.++ (re.* (re.* (str.to.re """"""""))) (re.++ (re.* (re.* (str.to.re "!"))) (re.++ (re.* (re.* (str.to.re "Z"))) (re.++ (re.union (re.* (str.to.re "W")) (re.union (str.to.re "X") (str.to.re "YYY"))) (re.++ (re.union (re.+ (str.to.re "T")) (re.union (str.to.re "UU") (str.to.re "V"))) (re.++ (re.union (re.* (str.to.re "Q")) (re.union (str.to.re "RR") (str.to.re "SSS"))) (re.++ (re.union (re.union (str.to.re "MM") (str.to.re "N")) (re.union (str.to.re "OO") (str.to.re "PP"))) (re.++ (re.union (re.union (str.to.re "JJ") (str.to.re "KKK")) (re.* (str.to.re "L"))) (re.++ (re.union (re.* (str.to.re "H")) (re.+ (str.to.re "I"))) (re.++ (re.+ (re.union (str.to.re "FF") (str.to.re "G"))) (re.++ (re.* (re.union (str.to.re "DDD") (str.to.re "E"))) (re.++ (re.union (re.* (str.to.re "AAA")) (re.union (str.to.re "BBB") (str.to.re "C"))) (re.++ (re.+ (re.+ (str.to.re "zz"))) (re.++ (re.* (re.* (str.to.re "y"))) (re.++ (re.+ (re.* (str.to.re "x"))) (re.++ (re.+ (re.* (str.to.re "ww"))) (re.++ (re.union (re.+ (str.to.re "uuu")) (re.* (str.to.re "vvv"))) (re.++ (re.+ (re.union (str.to.re "s") (str.to.re "tt"))) (re.++ (re.* (re.* (str.to.re "rrr"))) (re.++ (re.+ (re.union (str.to.re "p") (str.to.re "qqq"))) (re.++ (re.* (re.+ (str.to.re "ooo"))) (re.++ (re.* (re.union (str.to.re "mmm") (str.to.re "nnn"))) (re.++ (re.* (re.union (str.to.re "kkk") (str.to.re "lll"))) (re.++ (re.+ (re.+ (str.to.re "jjj"))) (re.++ (re.+ (re.+ (str.to.re "i"))) (re.++ (re.union (re.+ (str.to.re "fff")) (re.union (str.to.re "ggg") (str.to.re "hh"))) (re.++ (re.* (re.union (str.to.re "dd") (str.to.re "eee"))) (re.++ (re.union (re.* (str.to.re "bb")) (re.+ (str.to.re "c"))) (re.++ (re.union (re.* (str.to.re "8")) (re.union (str.to.re "99") (str.to.re "a"))) (re.++ (re.* (re.+ (str.to.re "777"))) (re.++ (re.union (re.+ (str.to.re "4")) (re.union (str.to.re "55") (str.to.re "666"))) (re.++ (re.* (re.union (str.to.re "222") (str.to.re "333"))) (re.++ (re.* (re.* (str.to.re "11"))) (re.++ (re.* (re.+ (str.to.re "0"))) (re.++ (re.+ (re.+ (str.to.re "~~~"))) (re.++ (re.union (re.* (str.to.re "|")) (re.+ (str.to.re "}}"))) (re.++ (re.union (re.* (str.to.re "```")) (re.+ (str.to.re "{"))) (re.++ (re.+ (re.union (str.to.re "^^") (str.to.re "___"))) (re.++ (re.+ (re.+ (str.to.re "]"))) (re.++ (re.+ (re.union (str.to.re "[") (str.to.re "\\"))) (re.++ (re.* (re.+ (str.to.re "@"))) (re.++ (re.+ (re.+ (str.to.re "???"))) (re.++ (re.+ (re.+ (str.to.re ">"))) (re.++ (re.+ (re.* (str.to.re "="))) (re.++ (re.* (re.union (str.to.re ";;;") (str.to.re "<"))) (re.++ (re.+ (re.+ (str.to.re ":::"))) (re.++ (re.+ (re.+ (str.to.re "///"))) (re.++ (re.union (re.union (str.to.re ",") (str.to.re "---")) (re.+ (str.to.re ".."))) (re.++ (re.+ (re.* (str.to.re "+++"))) (re.++ (re.union (re.union (str.to.re "''") (str.to.re "((")) (re.union (str.to.re "))") (str.to.re "*"))) (re.++ (re.* (re.* (str.to.re "&"))) (re.++ (re.+ (re.union (str.to.re "$$$") (str.to.re "%%"))) (re.++ (re.union (re.* (str.to.re "!!!")) (re.union (str.to.re """""""") (str.to.re "###"))) (re.++ (re.union (re.union (str.to.re "W") (str.to.re "X")) (re.union (str.to.re "Y") (str.to.re "ZZZ"))) (re.++ (re.+ (re.union (str.to.re "UUU") (str.to.re "V"))) (re.++ (re.union (re.+ (str.to.re "S")) (re.* (str.to.re "T"))) (re.++ (re.+ (re.union (str.to.re "QQQ") (str.to.re "R"))) (re.++ (re.union (re.* (str.to.re "OO")) (re.+ (str.to.re "PP"))) (re.++ (re.+ (re.* (str.to.re "N"))) (re.++ (re.+ (re.* (str.to.re "MM"))) (re.++ (re.* (re.* (str.to.re "L"))) (re.++ (re.* (re.* (str.to.re "KK"))) (re.++ (re.* (re.* (str.to.re "JJ"))) (re.++ (re.+ (re.+ (str.to.re "II"))) (re.++ (re.union (re.union (str.to.re "EE") (str.to.re "F")) (re.union (str.to.re "GGG") (str.to.re "H"))) (re.++ (re.union (re.union (str.to.re "B") (str.to.re "CC")) (re.+ (str.to.re "DD"))) (re.++ (re.* (re.+ (str.to.re "AA"))) (re.++ (re.+ (re.* (str.to.re "zzz"))) (re.++ (re.+ (re.* (str.to.re "y"))) (re.++ (re.union (re.* (str.to.re "vv")) (re.union (str.to.re "w") (str.to.re "xxx"))) (re.++ (re.* (re.* (str.to.re "uuu"))) (re.++ (re.* (re.union (str.to.re "ss") (str.to.re "ttt"))) (re.++ (re.union (re.* (str.to.re "qqq")) (re.+ (str.to.re "rr"))) (re.++ (re.union (re.+ (str.to.re "nnn")) (re.union (str.to.re "ooo") (str.to.re "p"))) (re.++ (re.* (re.+ (str.to.re "mm"))) (re.++ (re.+ (re.* (str.to.re "lll"))) (re.++ (re.* (re.union (str.to.re "jj") (str.to.re "kkk"))) (re.++ (re.* (re.+ (str.to.re "ii"))) (re.++ (re.+ (re.* (str.to.re "hhh"))) (re.++ (re.* (re.union (str.to.re "fff") (str.to.re "ggg"))) (re.++ (re.* (re.* (str.to.re "e"))) (re.++ (re.union (re.union (str.to.re "bb") (str.to.re "cc")) (re.* (str.to.re "ddd"))) (re.++ (re.+ (re.* (str.to.re "aa"))) (re.++ (re.+ (re.+ (str.to.re "999"))) (re.++ (re.union (re.union (str.to.re "555") (str.to.re "6")) (re.union (str.to.re "7") (str.to.re "88"))) (re.++ (re.+ (re.* (str.to.re "4"))) (re.++ (re.+ (re.+ (str.to.re "33"))) (re.union (re.* (str.to.re "00")) (re.union (str.to.re "1") (str.to.re "2")))))))))))))))))))))))))))))))))))))))))))))))))))))))))))))))))))))))))))))))))))))))))))))))))))))))))))))))))))))
(check-sat)